\ Model Routes
\ LP format - for model browsing. Use MPS format to capture full model detail.
Maximize
  - 191.7153353028244 R{0,0} + 210.7736552982703 R{0,1}
   + 210.7736552982703 R{0,2} - 249.2301939667805 R{0,3}
   - 17.2186063228686 R{0,4} + 1085.481438609255 R{0,5}
   + 1085.481438609255 R{0,6} + 1020.639985830245 R{0,7}
   + 1530.21992219022 R{0,8} + 898.3629010966506 R{0,9}
   + 1029.943244018977 R{0,10} + 926.8689696087399 R{0,11}
   + 234.7650315204939 R{0,12} + 486.6829182142316 R{0,13}
   + 201.2180653968798 R{0,14} - 256.140831891889 R{1,0}
   + 231.7510336595463 R{1,1} + 1029.005539856711 R{1,2}
   + 1327.938019617995 R{1,3} + 770.0966527959031 R{1,4}
   + 780.2828982840005 R{1,5} + 1026.003248046154 R{1,6}
   + 862.5643067648216 R{1,7} + 1217.831652851877 R{1,8}
   + 955.1827462467577 R{1,9} + 519.9127373318611 R{1,10}
   + 1288.674861151899 R{1,11} + 1221.974540539802 R{1,12}
   + 717.4127566139892 R{1,13} + 958.7785030056048 R{1,14}
   + 786.4502483187185 R{2,0} + 786.4502483187185 R{2,1}
   - 278.4443928850388 R{2,2} - 59.13410337035452 R{2,3}
   + 602.7748664658451 R{2,4} + 1100.505917706273 R{2,5}
   + 644.4168851140871 R{2,6} + 462.2985486765674 R{2,7}
   + 315.6038661273328 R{2,8} + 157.4662907254282 R{2,9}
   + 178.160556165165 R{2,10} + 750.1285036541748 R{2,11}
   - 260.2482995389823 R{3,0} + 507.2449935460145 R{3,1}
   + 886.6055046369149 R{3,2} + 629.022099819387 R{3,3}
   + 464.5637923427635 R{3,4} + 440.2215720926094 R{3,5}
   + 663.0590982309009 R{3,6} + 548.9067744016606 R{3,7}
   + 551.6758633859656 R{3,8} + 520.5180406797899 R{3,9}
   - 242.5208875955131 R{4,0} + 1066.379443184683 R{4,1}
   + 1576.196574514046 R{4,2} + 1568.019118967057 R{4,3}
   + 1231.244699801344 R{4,4} + 1614.759663885629 R{4,5}
   + 1438.32217442406 R{4,6} + 1590.020634956285 R{4,7}
   + 765.3484096358732 R{4,8} + 1387.53614194963 R{4,9}
   + 1165.132368235245 R{4,10} + 1992.961139502349 R{4,11}
   + 1064.401607746196 R{4,12} + 883.4841299475297 R{4,13}
   + 1226.404642346862 R{4,14} - 231.9775664337766 R{5,0}
   + 251.2011413408645 R{5,1} + 835.6653627301428 R{5,2}
   + 503.450797973627 R{5,3} + 361.9270839039933 R{5,4}
   + 425.5521920683999 R{5,5} + 158.0602895800514 R{5,6}
   + 279.08767350511 R{5,7} + 434.2799329402769 R{5,8}
   + 193.2440226654699 R{5,9} - 231.1436095783099 R{6,0}
   + 1370.402709432251 R{6,1} + 2203.660382897198 R{6,2}
   + 2135.827740052187 R{6,3} + 628.560339122025 R{6,4}
   + 1694.171366002493 R{6,5} + 1537.074980323019 R{6,6}
   + 1105.642454573528 R{6,7} + 1615.373910670105 R{6,8}
   + 1361.787846449219 R{6,9} + 677.2123807999744 R{6,10}
   + 1469.614126123322 R{6,11} + 1150.083709159031 R{6,12}
   + 844.7582578361398 R{6,13} + 1249.590905971049 R{6,14}
   + 2211.939302930438 R{6,15} + 1719.022772577912 R{6,16}
   + 1591.059618758003 R{6,17} + 1100.7079177487 R{6,18}
   + 1863.263960182327 R{6,19} + 898.3641182217175 R{6,20}
   + 1455.041343706539 R{6,21}
Subject To
 R00: R{0,0} <= 1
 R01: R{0,1} <= 1
 R02: R{0,2} <= 1
 R03: R{0,3} <= 1
 R04: R{0,4} <= 1
 R05: R{0,5} <= 1
 R06: R{0,6} <= 1
 R07: R{0,7} <= 1
 R08: R{0,8} <= 1
 R09: R{0,9} <= 1
 R010: R{0,10} <= 1
 R011: R{0,11} <= 1
 R012: R{0,12} <= 1
 R013: R{0,13} <= 1
 R014: R{0,14} <= 1
 R015: R{1,0} <= 1
 R016: R{1,1} <= 1
 R017: R{1,2} <= 1
 R018: R{1,3} <= 1
 R019: R{1,4} <= 1
 R020: R{1,5} <= 1
 R021: R{1,6} <= 1
 R022: R{1,7} <= 1
 R023: R{1,8} <= 1
 R024: R{1,9} <= 1
 R025: R{1,10} <= 1
 R026: R{1,11} <= 1
 R027: R{1,12} <= 1
 R028: R{1,13} <= 1
 R029: R{1,14} <= 1
 R030: R{2,0} <= 1
 R031: R{2,1} <= 1
 R032: R{2,2} <= 1
 R033: R{2,3} <= 1
 R034: R{2,4} <= 1
 R035: R{2,5} <= 1
 R036: R{2,6} <= 1
 R037: R{2,7} <= 1
 R038: R{2,8} <= 1
 R039: R{2,9} <= 1
 R040: R{2,10} <= 1
 R041: R{2,11} <= 1
 R042: R{3,0} <= 1
 R043: R{3,1} <= 1
 R044: R{3,2} <= 1
 R045: R{3,3} <= 1
 R046: R{3,4} <= 1
 R047: R{3,5} <= 1
 R048: R{3,6} <= 1
 R049: R{3,7} <= 1
 R050: R{3,8} <= 1
 R051: R{3,9} <= 1
 R052: R{4,0} <= 1
 R053: R{4,1} <= 1
 R054: R{4,2} <= 1
 R055: R{4,3} <= 1
 R056: R{4,4} <= 1
 R057: R{4,5} <= 1
 R058: R{4,6} <= 1
 R059: R{4,7} <= 1
 R060: R{4,8} <= 1
 R061: R{4,9} <= 1
 R062: R{4,10} <= 1
 R063: R{4,11} <= 1
 R064: R{4,12} <= 1
 R065: R{4,13} <= 1
 R066: R{4,14} <= 1
 R067: R{5,0} <= 1
 R068: R{5,1} <= 1
 R069: R{5,2} <= 1
 R070: R{5,3} <= 1
 R071: R{5,4} <= 1
 R072: R{5,5} <= 1
 R073: R{5,6} <= 1
 R074: R{5,7} <= 1
 R075: R{5,8} <= 1
 R076: R{5,9} <= 1
 R077: R{6,0} <= 1
 R078: R{6,1} <= 1
 R079: R{6,2} <= 1
 R080: R{6,3} <= 1
 R081: R{6,4} <= 1
 R082: R{6,5} <= 1
 R083: R{6,6} <= 1
 R084: R{6,7} <= 1
 R085: R{6,8} <= 1
 R086: R{6,9} <= 1
 R087: R{6,10} <= 1
 R088: R{6,11} <= 1
 R089: R{6,12} <= 1
 R090: R{6,13} <= 1
 R091: R{6,14} <= 1
 R092: R{6,15} <= 1
 R093: R{6,16} <= 1
 R094: R{6,17} <= 1
 R095: R{6,18} <= 1
 R096: R{6,19} <= 1
 R097: R{6,20} <= 1
 R098: R{6,21} <= 1
 R1_0: R{0,0} + R{0,1} + R{0,2} + R{0,3} + R{0,4} + R{0,5} + R{0,6}
   + R{0,7} + R{0,8} + R{0,9} + R{0,10} + R{0,11} + R{0,12} + R{0,13}
   + R{0,14} <= 1
 R1_1: R{1,0} + R{1,1} + R{1,2} + R{1,3} + R{1,4} + R{1,5} + R{1,6}
   + R{1,7} + R{1,8} + R{1,9} + R{1,10} + R{1,11} + R{1,12} + R{1,13}
   + R{1,14} <= 1
 R1_2: R{2,0} + R{2,1} + R{2,2} + R{2,3} + R{2,4} + R{2,5} + R{2,6}
   + R{2,7} + R{2,8} + R{2,9} + R{2,10} + R{2,11} <= 1
 R1_3: R{3,0} + R{3,1} + R{3,2} + R{3,3} + R{3,4} + R{3,5} + R{3,6}
   + R{3,7} + R{3,8} + R{3,9} <= 1
 R1_4: R{4,0} + R{4,1} + R{4,2} + R{4,3} + R{4,4} + R{4,5} + R{4,6}
   + R{4,7} + R{4,8} + R{4,9} + R{4,10} + R{4,11} + R{4,12} + R{4,13}
   + R{4,14} <= 1
 R1_5: R{5,0} + R{5,1} + R{5,2} + R{5,3} + R{5,4} + R{5,5} + R{5,6}
   + R{5,7} + R{5,8} + R{5,9} <= 1
 R1_6: R{6,0} + R{6,1} + R{6,2} + R{6,3} + R{6,4} + R{6,5} + R{6,6}
   + R{6,7} + R{6,8} + R{6,9} + R{6,10} + R{6,11} + R{6,12} + R{6,13}
   + R{6,14} + R{6,15} + R{6,16} + R{6,17} + R{6,18} + R{6,19} + R{6,20}
   + R{6,21} <= 1
 R2_0: 7 R{6,14} <= 7
 R2_1: 10 R{0,10} + 10 R{1,1} + 10 R{1,2} + 10 R{1,3} + 10 R{1,4}
   + 10 R{1,5} + 10 R{1,6} + 10 R{1,8} + 10 R{1,9} + 10 R{1,10}
   + 10 R{1,13} + 10 R{1,14} + 10 R{5,4} <= 10
 R2_2: <= 0
 R2_3: <= 4
 R2_4: <= 0
 R2_5: 5 R{0,4} + 5 R{0,5} + 5 R{0,6} <= 5
 R2_6: 10 R{0,7} + 10 R{3,1} + 10 R{3,2} + 10 R{3,5} + 10 R{3,6}
   + 10 R{3,7} + 10 R{5,8} <= 10
 R2_7: 6 R{1,1} + 6 R{1,2} + 6 R{1,3} + 6 R{1,4} + 6 R{1,5} + 6 R{1,7}
   + 6 R{1,8} + 6 R{1,9} + 6 R{1,10} + 6 R{1,12} + 6 R{1,13} + 6 R{1,14}
   <= 6
 R2_8: <= 0
 R2_9: 12 R{2,11} + 12 R{4,1} + 12 R{4,2} + 12 R{4,3} + 12 R{4,4}
   + 12 R{4,5} + 12 R{4,6} + 12 R{4,8} + 12 R{4,9} + 12 R{4,10}
   + 12 R{4,11} + 12 R{4,12} + 12 R{4,13} + 12 R{4,14} <= 12
 R2_10: 8 R{6,1} + 8 R{6,2} + 8 R{6,4} + 8 R{6,5} + 8 R{6,6} + 8 R{6,12}
   + 8 R{6,13} <= 8
 R2_11: 15 R{6,17} <= 15
 R2_12: <= 0
 R2_13: <= 0
 R2_14: <= 0
 R2_15: 11 R{0,0} + 11 R{0,1} + 11 R{0,2} + 11 R{4,1} + 11 R{4,2}
   + 11 R{4,5} <= 11
 R2_16: 5 R{0,13} + 5 R{2,8} + 5 R{2,10} + 5 R{4,14} <= 5
 R2_17: <= 0
 R2_18: <= 0
 R2_19: 11 R{0,8} + 11 R{1,2} + 11 R{1,3} + 11 R{1,7} + 11 R{1,8}
   + 11 R{1,11} + 11 R{1,12} + 11 R{1,13} + 11 R{4,1} + 11 R{4,2}
   + 11 R{4,5} + 11 R{4,6} + 11 R{4,9} + 11 R{4,11} + 11 R{4,14}
   + 11 R{5,3} + 11 R{5,5} <= 11
 R2_20: 13 R{0,9} + 13 R{0,11} + 13 R{2,5} + 13 R{6,1} + 13 R{6,2}
   + 13 R{6,3} + 13 R{6,5} + 13 R{6,6} + 13 R{6,7} + 13 R{6,8} + 13 R{6,11}
   + 13 R{6,14} + 13 R{6,15} + 13 R{6,17} + 13 R{6,19} + 13 R{6,21} <= 13
 R2_21: <= 0
 R2_22: 10 R{1,13} + 10 R{6,15} + 10 R{6,16} + 10 R{6,18} <= 10
 R2_23: 14 R{0,1} + 14 R{0,2} + 14 R{0,13} + 14 R{2,0} + 14 R{2,1}
   + 14 R{2,6} + 14 R{2,7} + 14 R{2,11} + 14 R{6,2} + 14 R{6,3} + 14 R{6,8}
   + 14 R{6,15} + 14 R{6,19} <= 14
 R2_24: 10 R{1,10} + 10 R{3,1} + 10 R{3,2} + 10 R{3,3} + 10 R{3,4}
   + 10 R{3,5} + 10 R{3,7} + 10 R{3,8} + 10 R{3,9} + 10 R{6,20} <= 10
 R2_25: 13 R{4,1} + 13 R{4,2} + 13 R{4,3} + 13 R{4,4} + 13 R{4,5}
   + 13 R{4,6} + 13 R{4,7} + 13 R{4,9} + 13 R{4,10} + 13 R{4,11}
   + 13 R{4,12} + 13 R{4,13} + 13 R{4,14} <= 13
 R2_26: 6 R{2,9} + 6 R{5,1} + 6 R{5,2} + 6 R{5,3} + 6 R{5,4} + 6 R{5,6}
   + 6 R{5,7} + 6 R{5,8} <= 6
 R2_27: 5 R{0,5} + 5 R{0,6} + 5 R{0,8} + 5 R{0,9} + 5 R{0,11} + 5 R{3,3}
   + 5 R{3,8} + 5 R{6,1} + 5 R{6,2} + 5 R{6,3} + 5 R{6,5} + 5 R{6,8}
   + 5 R{6,9} + 5 R{6,11} + 5 R{6,14} + 5 R{6,15} + 5 R{6,16} + 5 R{6,21}
   <= 5
 R2_28: <= 0
 R2_29: <= 0
 R2_30: <= 0
 R2_31: <= 0
 R2_32: 7 R{0,12} + 7 R{5,1} + 7 R{5,2} + 7 R{5,3} + 7 R{5,6} + 7 R{5,8}
   <= 7
 R2_33: 12 R{3,4} + 12 R{3,9} <= 12
 R2_34: 5 R{1,3} + 5 R{1,4} + 5 R{1,6} + 5 R{1,7} + 5 R{1,9} + 5 R{1,14}
   + 5 R{6,4} + 5 R{6,12} + 5 R{6,13} + 5 R{6,20} <= 5
 R2_35: <= 0
 R2_36: <= 0
 R2_37: 5 R{0,14} + 5 R{3,1} + 5 R{3,2} + 5 R{3,3} + 5 R{3,4} + 5 R{3,5}
   + 5 R{3,6} + 5 R{3,7} + 5 R{5,9} <= 5
 R2_38: <= 0
 R2_39: <= 0
 R2_40: 15 R{2,3} + 15 R{2,4} + 15 R{2,5} + 15 R{2,9} <= 15
 R2_41: 5 R{1,2} + 5 R{1,3} + 5 R{1,6} + 5 R{1,8} + 5 R{1,12} + 5 R{3,2}
   + 5 R{3,6} + 5 R{4,7} + 5 R{4,9} + 5 R{6,10} <= 5
 R2_42: 4 R{2,3} + 4 R{2,4} + 4 R{2,5} + 4 R{2,9} <= 4
 R2_43: <= 0
 R2_44: <= 0
 R2_45: <= 0
 R2_46: 9 R{4,3} + 9 R{4,4} + 9 R{4,6} + 9 R{4,7} + 9 R{4,9} + 9 R{4,10}
   + 9 R{4,11} + 9 R{6,16} + 9 R{6,18} <= 9
 R2_47: 7 R{5,1} + 7 R{5,2} + 7 R{5,4} + 7 R{5,8} <= 7
 R2_48: 4 R{4,1} + 4 R{4,2} + 4 R{4,3} + 4 R{4,4} + 4 R{4,5} + 4 R{4,6}
   + 4 R{4,7} + 4 R{4,8} + 4 R{4,10} + 4 R{4,11} + 4 R{4,12} + 4 R{4,13}
   + 4 R{4,14} <= 4
 R2_49: <= 0
 R2_50: <= 0
 R2_51: 11 R{4,1} + 11 R{4,6} + 11 R{4,7} <= 11
 R2_52: 10 R{4,12} <= 10
 R2_53: 13 R{4,1} + 13 R{4,2} + 13 R{4,3} + 13 R{4,5} + 13 R{4,6}
   + 13 R{4,11} + 13 R{4,14} <= 13
 R2_54: 9 R{3,1} + 9 R{3,2} + 9 R{3,3} + 9 R{3,4} + 9 R{3,6} + 9 R{3,7}
   + 9 R{3,9} <= 9
 R2_55: 8 R{1,8} + 8 R{1,9} + 8 R{1,12} + 8 R{6,1} + 8 R{6,2} + 8 R{6,3}
   + 8 R{6,5} + 8 R{6,6} + 8 R{6,7} + 8 R{6,8} + 8 R{6,9} + 8 R{6,10}
   + 8 R{6,11} + 8 R{6,17} + 8 R{6,19} <= 8
 R2_56: 6 R{2,0} + 6 R{2,1} + 6 R{2,8} + 6 R{2,11} + 6 R{4,4} + 6 R{4,8}
   + 6 R{4,12} + 6 R{4,13} + 6 R{6,2} + 6 R{6,3} + 6 R{6,5} + 6 R{6,7}
   + 6 R{6,9} + 6 R{6,15} + 6 R{6,16} + 6 R{6,17} + 6 R{6,19} <= 6
 R2_57: <= 0
 R2_58: <= 0
 R2_59: 10 R{1,4} + 10 R{1,9} + 10 R{1,14} + 10 R{4,8} + 10 R{4,10}
   + 10 R{6,13} + 10 R{6,18} + 10 R{6,20} + 10 R{6,21} <= 10
 R2_60: <= 0
 R2_61: 9 R{2,6} + 9 R{2,7} + 9 R{4,7} <= 9
 R2_62: <= 0
 R2_63: <= 0
 R2_64: <= 0
 R2_65: 5 R{2,0} + 5 R{2,1} + 5 R{2,6} + 5 R{2,10} + 5 R{6,1} + 5 R{6,2}
   + 5 R{6,3} + 5 R{6,4} + 5 R{6,5} + 5 R{6,6} + 5 R{6,7} + 5 R{6,8}
   + 5 R{6,9} + 5 R{6,10} + 5 R{6,11} + 5 R{6,12} + 5 R{6,13} + 5 R{6,15}
   + 5 R{6,16} + 5 R{6,17} + 5 R{6,18} + 5 R{6,20} <= 5
 R2_66: 7 R{6,1} + 7 R{6,2} + 7 R{6,3} + 7 R{6,4} + 7 R{6,5} + 7 R{6,8}
   + 7 R{6,9} + 7 R{6,11} + 7 R{6,13} + 7 R{6,14} + 7 R{6,15} + 7 R{6,16}
   + 7 R{6,17} + 7 R{6,18} + 7 R{6,19} + 7 R{6,21} <= 7
 R2_67: <= 3
 R2_68: 6 R{1,1} + 6 R{1,2} + 6 R{1,3} + 6 R{1,4} + 6 R{1,6} + 6 R{1,7}
   + 6 R{1,8} + 6 R{1,9} + 6 R{1,10} + 6 R{1,11} + 6 R{1,12} + 6 R{1,14}
   <= 6
 R2_69: 7 R{1,6} + 7 R{3,9} + 7 R{4,1} + 7 R{4,2} + 7 R{4,3} + 7 R{4,4}
   + 7 R{4,5} + 7 R{4,6} + 7 R{4,7} + 7 R{4,9} + 7 R{4,10} + 7 R{4,11}
   + 7 R{4,12} + 7 R{4,13} + 7 R{4,14} <= 7
 R2_70: 11 R{1,1} + 11 R{1,2} + 11 R{1,5} <= 11
 R2_71: 7 R{1,14} + 7 R{3,8} + 7 R{6,1} + 7 R{6,2} + 7 R{6,3} + 7 R{6,4}
   + 7 R{6,5} + 7 R{6,6} + 7 R{6,7} + 7 R{6,9} + 7 R{6,10} + 7 R{6,12}
   + 7 R{6,13} + 7 R{6,15} + 7 R{6,16} + 7 R{6,17} + 7 R{6,18} + 7 R{6,19}
   + 7 R{6,20} <= 7
 R2_72: <= 0
 R2_73: <= 0
 R2_74: 5 R{5,1} + 5 R{5,4} <= 5
 R2_75: 8 R{6,1} + 8 R{6,2} + 8 R{6,3} + 8 R{6,4} + 8 R{6,6} + 8 R{6,8}
   + 8 R{6,9} + 8 R{6,11} + 8 R{6,12} + 8 R{6,14} + 8 R{6,15} + 8 R{6,16}
   + 8 R{6,17} + 8 R{6,19} + 8 R{6,21} <= 8
 R2_76: 12 R{0,4} + 12 R{0,5} + 12 R{0,6} + 12 R{0,7} + 12 R{0,8}
   + 12 R{0,9} + 12 R{0,10} + 12 R{0,11} + 12 R{0,12} + 12 R{0,14}
   + 12 R{1,7} + 12 R{1,11} + 12 R{1,12} + 12 R{5,5} + 12 R{5,7}
   + 12 R{5,9} + 12 R{6,11} + 12 R{6,14} + 12 R{6,19} + 12 R{6,21} <= 12
 R2_77: 7 R{0,5} + 7 R{0,6} + 7 R{0,7} + 7 R{0,8} + 7 R{0,10} + 7 R{1,5}
   + 7 R{1,11} + 7 R{2,4} + 7 R{2,5} + 7 R{4,2} + 7 R{4,3} + 7 R{4,5}
   + 7 R{4,11} + 7 R{5,2} + 7 R{6,6} + 7 R{6,12} <= 7
Bounds
End
